
List of user-set options:

                                    Name   Value                used
                        file_print_level = 5                     yes
                   hessian_approximation = limited-memory        yes
                           linear_solver = mumps                 yes
                      nlp_scaling_method = user-scaling          yes
                             output_file = C:\Users\alexa\Documents\Chasing Amber\rosa\size_mantaray_out/IPOPT.out  yes
                             print_level = 0                     yes
                      print_user_options = yes                   yes
                                      sb = yes                   yes
This is Ipopt version 3.14.17, running with linear solver MUMPS 5.7.3.

Number of nonzeros in equality constraint Jacobian...:        0
Number of nonzeros in inequality constraint Jacobian.:        1
Number of nonzeros in Lagrangian Hessian.............:        0

Total number of variables............................:        3
                     variables with only lower bounds:        0
                variables with lower and upper bounds:        3
                     variables with only upper bounds:        0
Total number of equality constraints.................:        0
Total number of inequality constraints...............:        1
        inequality constraints with only lower bounds:        0
   inequality constraints with lower and upper bounds:        0
        inequality constraints with only upper bounds:        1

iter    objective    inf_pr   inf_du lg(mu)  ||d||  lg(rg) alpha_du alpha_pr  ls
   0 -2.0730296e+06 1.00e+03 2.98e+06   0.0 0.00e+00    -  0.00e+00 0.00e+00   0
   1 -2.8004749e+06 1.00e+03 1.05e+07   1.7 4.20e+05    -  1.65e-06 5.05e-07f  1
   2 -2.8269700e+06 1.00e+03 1.13e+07   1.5 5.27e+03    -  4.45e-04 4.02e-07f  1
   3 -2.8271688e+06 1.00e+03 1.44e+04   0.4 1.93e+00    -  1.00e+00 4.12e-04f  1
   4 -2.8258002e+06 0.00e+00 1.30e+04  -0.4 6.47e-02    -  1.00e+00 1.00e+00h  1
   5 -2.8258002e+06 0.00e+00 1.43e-02  -2.4 2.33e-01    -  1.00e+00 1.14e-13h 44
   6 -2.8258002e+06 0.00e+00 5.89e-02  -1.0 1.81e-01    -  1.00e+00 1.46e-11f 37
   7 -2.8258002e+06 0.00e+00 6.82e-03  -1.7 2.25e-01    -  1.00e+00 2.33e-10f 33
   8 -2.8258002e+06 0.00e+00 1.42e-03  -2.6 2.35e-01    -  1.00e+00 9.28e-10f 31
   9 -2.8258006e+06 0.00e+00 1.46e+01  -3.9 2.36e-01    -  1.00e+00 9.98e-01f  1
iter    objective    inf_pr   inf_du lg(mu)  ||d||  lg(rg) alpha_du alpha_pr  ls
  10 -2.8258006e+06 0.00e+00 2.66e-03  -5.6 5.64e-04    -  1.00e+00 2.59e-318h1056
  11 -2.8258006e+06 0.00e+00 1.43e-04  -3.7 4.36e-04    -  1.00e+00 7.45e-09f 28
  12 -2.8258006e+06 0.00e+00 2.08e-06  -5.5 5.64e-04    -  1.00e+00 9.54e-07f 21
  13 -2.8258006e+06 0.00e+00 4.12e-02  -8.3 5.66e-04    -  1.00e+00 1.00e+00f  1
In iteration 13, 1 Slack too small, adjusting variable bound
  14 -2.8258006e+06 0.00e+00 6.36e-06 -11.0 3.29e-09    -  1.00e+00 1.00e+00h  1

Number of Iterations....: 14

                                   (scaled)                 (unscaled)
Objective...............:  -2.8258006413310291e+06   -2.8258006413310291e+06
Dual infeasibility......:   6.3553343081375229e-06    6.3553343081375229e-06
Constraint violation....:   0.0000000000000000e+00    0.0000000000000000e+00
Variable bound violation:   9.9999999947364415e-09    9.9999999947364415e-09
Complementarity.........:   1.0000752686876275e-11    1.0000752686876275e-11
Overall NLP error.......:   4.4930327734132547e-10    6.3553343081375229e-06


Number of objective function evaluations             = 1261
Number of objective gradient evaluations             = 15
Number of equality constraint evaluations            = 0
Number of inequality constraint evaluations          = 1261
Number of equality constraint Jacobian evaluations   = 0
Number of inequality constraint Jacobian evaluations = 15
Number of Lagrangian Hessian evaluations             = 0
Total seconds in IPOPT                               = 9.371

EXIT: Optimal Solution Found.
